32352
205,425,461,485,486,507,730,732,834,932,999,1140,1194,1227,1263,1272,1493,1527,1569,1602,1615,1617,1890,1896,2006,2043,2149,2394,2420,2521,2571,2577,2737,2810,2883,3019,3065,3175,3253,3585,3946,3952,4001,4021,4056,4115,4131,4335,4396,4561,4645,4648,4735,4812,4820,4838,4989,4991
